Maximize
  - 2.7657372157646 edge_0_1_0_0 - 1.0086849125944 edge_0_2_0_0
   - 0.6595774521156 edge_0_3_0_0 - 2.4323880630992 edge_0_4_0_0
   - 0.9613460774153999 edge_0_5_0_0 - 2.7287810365539 edge_0_6_0_0
   - 0.6623756036328 edge_0_8_0_0 - 3.8276573880812 edge_0_11_0_0
   - 4.63803 edge_0_14_0_0 - 0.1436092766308614 edge_1_4_0_0
   - 0.3529171428372197 edge_1_5_0_0 - 0.0754370899390289 edge_1_6_0_0
   - 0.0304196464842746 edge_1_8_0_0 + 0.7178923415392758 edge_2_2_0_0
   + 1.400642403165596 edge_2_3_0_0 + 0.3075596417299543 edge_2_4_0_0
   + 0.9887365989936515 edge_2_5_0_0 + 0.4401338047393001 edge_2_6_0_0
   + 0.5245552332503649 edge_2_7_0_0 + 0.6618007093711853 edge_2_8_0_0
   + 0.1932757942871484 edge_2_9_0_0 - 0.069092029536767 edge_2_10_0_0
   + 0.4641332566709562 edge_2_11_0_0 + 0.1798004117386456 edge_2_12_0_0
   + 0.3482803814851092 edge_2_14_0_0 + 0.00622362176861144 edge_2_15_0_0
   + 0.1010689772829811 edge_2_17_0_0 + 0.1997754492652922 edge_2_19_0_0
   + 0.0162477550884022 edge_2_20_0_0 + 0.5752485054492812 edge_2_21_0_0
   - 0.0427128420705842 edge_3_1_0_0 + 1.921354218251208 edge_3_2_0_0
   + 2.369992904144625 edge_3_4_0_0 + 2.5646692260312 edge_3_5_0_0
   + 0.8552219303144269 edge_3_6_0_0 + 1.095541779140116 edge_3_7_0_0
   + 1.228272157660407 edge_3_8_0_0 + 1.088184638710771 edge_3_9_0_0
   + 0.0559256122219615 edge_3_10_0_0 + 0.7313758402571497 edge_3_11_0_0
   + 0.2790307452583076 edge_3_12_0_0 + 0.6905897778325173 edge_3_13_0_0
   + 0.1102377375532658 edge_3_14_0_0 + 0.6390896834283366 edge_3_15_0_0
   + 0.089441534675751 edge_3_17_0_0 + 0.5589371868599735 edge_3_19_0_0
   + 0.6938779533019921 edge_3_20_0_0 + 4.247753043813502 edge_3_21_0_0
   - 0.2107976789507393 edge_4_1_0_0 + 0.2596511137637364 edge_4_2_0_0
   + 0.5894529055879091 edge_4_3_0_0 + 0.3281681482484631 edge_4_5_0_0
   + 0.0551708152390725 edge_4_6_0_0 + 0.3294126524787333 edge_4_7_0_0
   + 0.0495555477442198 edge_4_8_0_0 - 0.2630472330469879 edge_4_9_0_0
   + 0.0359215770388015 edge_4_10_0_0 - 0.7800206189690839 edge_4_11_0_0
   - 0.1010797347451167 edge_4_12_0_0 - 0.062307685521814 edge_4_13_0_0
   - 0.050239246541209 edge_4_14_0_0 - 0.1476247710129256 edge_4_15_0_0
   - 0.8836126229730236 edge_4_17_0_0 - 0.0678090195456223 edge_4_19_0_0
   - 0.3474227375944727 edge_4_20_0_0 + 0.2195712765802629 edge_4_21_0_0
   - 0.178229468969983 edge_5_1_0_0 + 1.372042349006922 edge_5_2_0_0
   + 1.931138874003257 edge_5_3_0_0 + 1.881863986447635 edge_5_4_0_0
   + 2.539609405801031 edge_5_6_0_0 + 3.330978837259008 edge_5_7_0_0
   + 3.351081019084138 edge_5_8_0_0 + 2.717258816618803 edge_5_9_0_0
   + 0.1813203242108352 edge_5_10_0_0 + 1.896542090980454 edge_5_11_0_0
   + 2.469225162255818 edge_5_12_0_0 + 1.223181482092728 edge_5_13_0_0
   + 1.797343945972 edge_5_14_0_0 + 2.668887484550582 edge_5_15_0_0
   + 1.884713984034071 edge_5_17_0_0 + 3.705293864306389 edge_5_19_0_0
   + 2.636541127332422 edge_5_20_0_0 + 2.428521197440775 edge_5_21_0_0
   - 0.4013892472361227 edge_6_1_0_0 + 0.0136533902187709 edge_6_2_0_0
   + 0.0231737242536932 edge_6_3_0_0 - 0.1757456532349191 edge_6_4_0_0
   - 0.0792020806240009 edge_6_5_0_0 - 0.1708331312110797 edge_6_8_0_0
   + 0.0634218698982646 edge_6_10_0_0 - 0.4987016149262157 edge_6_12_0_0
   - 0.5164828718026957 edge_6_14_0_0 + 0.0945191029605824 edge_6_20_0_0
   - 0.9501728498719032 edge_7_4_0_0 - 1.13607213960533 edge_7_5_0_0
   - 0.0257121684797097 edge_7_8_0_0 - 0.0719288572394765 edge_7_9_0_0
   - 0.3076763308209069 edge_7_11_0_0 - 0.2360091863617145 edge_7_13_0_0
   - 0.0969793441994193 edge_7_21_0_0 - 5.7440316611300001e-04 edge_8_1_0_0
   + 0.6421103960347342 edge_8_2_0_0 + 0.6806592415847679 edge_8_3_0_0
   + 0.0146472078960709 edge_8_4_0_0 + 0.9345976688219508 edge_8_5_0_0
   + 2.007683768386063 edge_8_6_0_0 + 0.9383675901443616 edge_8_7_0_0
   + 0.5626728818926772 edge_8_8_0_0 + 2.117311490954619 edge_8_9_0_0
   - 0.00512973812339174 edge_8_10_0_0 + 1.791423142563184 edge_8_11_0_0
   + 2.122694264556778 edge_8_12_0_0 + 0.9405976095461624 edge_8_13_0_0
   + 1.0145172202152 edge_8_14_0_0 + 1.867402549893793 edge_8_15_0_0
   + 0.9102004214626916 edge_8_17_0_0 + 2.728859869888169 edge_8_19_0_0
   + 1.753908449535281 edge_8_20_0_0 + 0.9596564820582808 edge_8_21_0_0
   - 0.2251920550527645 edge_9_7_0_0 - 0.119005972561684 edge_9_8_0_0
   - 0.1018545180452725 edge_9_11_0_0 - 0.6764048778591925 edge_9_13_0_0
   - 0.5712409144702996 edge_9_14_0_0 + 0.0295362189381842 edge_10_2_0_0
   - 0.0266221125605029 edge_10_3_0_0 - 0.1896033149141234 edge_10_5_0_0
   - 0.0637379474244267 edge_10_6_0_0 - 0.1075949761594516 edge_10_20_0_0
   - 0.0316939183848186 edge_10_21_0_0 + 0.2121611668630231 edge_11_2_0_0
   + 0.3849658383992088 edge_11_3_0_0 - 0.4517466987295741 edge_11_4_0_0
   + 0.4175148582931256 edge_11_5_0_0 + 1.175191161394139 edge_11_6_0_0
   - 0.6470859243524919 edge_11_7_0_0 + 1.020242482620938 edge_11_8_0_0
   + 2.004278638276591 edge_11_9_0_0 + 2.100365299784142 edge_11_12_0_0
   + 2.328979471576439 edge_11_13_0_0 + 1.996471911809786 edge_11_14_0_0
   + 2.103000175529715 edge_11_15_0_0 + 1.517513517534273 edge_11_17_0_0
   + 2.498005558962296 edge_11_19_0_0 + 1.744263025973162 edge_11_20_0_0
   + 0.7402072393551183 edge_11_21_0_0 - 0.7791204772020659 edge_12_3_0_0
   - 0.3728089289323079 edge_12_6_0_0 - 0.5610821006942756 edge_12_8_0_0
   - 0.8238443049602842 edge_12_11_0_0 - 0.1483360803873893 edge_12_14_0_0
   - 0.2491006272498194 edge_12_15_0_0 - 1.318205301834199 edge_13_9_0_0
   - 0.3272340175518063 edge_13_11_0_0 + 0.7812056479452223 edge_13_14_0_0
   + 0.5105503561026316 edge_13_15_0_0 + 0.2387227875930014 edge_13_17_0_0
   + 0.1892539542045514 edge_13_19_0_0 + 0.2542760955817538 edge_13_20_0_0
   - 0.059710052801278 edge_14_2_0_0 + 0.21343777912892 edge_14_3_0_0
   - 0.2717137933758567 edge_14_4_0_0 + 0.11628044956166 edge_14_5_0_0
   + 0.8135595342086842 edge_14_6_0_0 + 0.4015105001271732 edge_14_7_0_0
   + 0.50404161892218 edge_14_8_0_0 + 1.173202250017313 edge_14_9_0_0
   + 1.020245278093 edge_14_11_0_0 + 2.000500906833062 edge_14_12_0_0
   - 0.059308151251705 edge_14_13_0_0 + 2.1137355467222 edge_14_15_0_0
   + 2.180906670923062 edge_14_17_0_0 + 2.5580707483152 edge_14_19_0_0
   + 1.95818344328997 edge_14_20_0_0 + 0.6088225403276206 edge_14_21_0_0
   - 0.0898224126036573 edge_15_8_0_0 - 0.1799172583011038 edge_15_12_0_0
   - 1.071454388520951 edge_15_13_0_0 - 0.1700123092241837 edge_15_14_0_0
   + 0.0322117526117452 edge_15_17_0_0 - 0.5125369833677459 edge_15_19_0_0
   - 0.3774070310789894 edge_15_20_0_0 - 0.6509045640808775 edge_17_2_0_0
   - 0.0904135885038556 edge_17_3_0_0 - 1.503597641028359 edge_17_4_0_0
   - 5.3457216887106728e-04 edge_17_5_0_0
   - 0.1253165448177316 edge_17_6_0_0 - 0.1645431021130249 edge_17_8_0_0
   + 0.4265766376599653 edge_17_9_0_0 + 0.1375601088932602 edge_17_11_0_0
   + 0.7861037841341613 edge_17_12_0_0 - 1.092347284233623 edge_17_13_0_0
   + 1.583673686351648 edge_17_14_0_0 + 1.621853606232253 edge_17_15_0_0
   + 2.312043790357251 edge_17_19_0_0 + 2.129791133658741 edge_17_20_0_0
   + 0.69802029620596 edge_17_21_0_0 - 1.01237022274871 edge_19_12_0_0
   - 0.6911833954295392 edge_19_15_0_0 - 0.2321543266993292 edge_19_17_0_0
   + 0.5076763442870279 edge_19_20_0_0 + 0.4017905303405155 edge_19_21_0_0
   - 0.6571030508255955 edge_20_1_0_0 + 0.3224342362616469 edge_20_2_0_0
   + 0.1217787341588129 edge_20_3_0_0 - 0.3645917433819864 edge_20_4_0_0
   - 0.2021185429769721 edge_20_5_0_0 + 0.0494790808901579 edge_20_6_0_0
   - 0.209081704710282 edge_20_8_0_0 + 0.0378464030054616 edge_20_10_0_0
   - 0.8201431876047228 edge_20_11_0_0 - 0.5536672209037967 edge_20_12_0_0
   - 0.1972004114282003 edge_20_14_0_0 + 0.3256902359290541 edge_20_15_0_0
   + 0.0653144107451175 edge_20_17_0_0 + 0.2907024166074467 edge_20_19_0_0
   + 0.8718654687234655 edge_20_21_0_0 - 0.5743384355029434 edge_21_8_0_0
   + 0.08419081569731 edge_21_20_0_0
Subject To
 one_parent_1: edge_0_1_0_0 + edge_3_1_0_0 + edge_4_1_0_0 + edge_5_1_0_0
   + edge_6_1_0_0 + edge_8_1_0_0 + edge_20_1_0_0 = 1
 consume_one_flow_unit_1: flow_0_1_0_0 - flow_1_4_0_0 - flow_1_5_0_0
   - flow_1_6_0_0 - flow_1_8_0_0 + flow_3_1_0_0 + flow_4_1_0_0
   + flow_5_1_0_0 + flow_6_1_0_0 + flow_8_1_0_0 + flow_20_1_0_0 = 1
 one_parent_2: edge_0_2_0_0 + edge_2_2_0_0 + edge_3_2_0_0 + edge_4_2_0_0
   + edge_5_2_0_0 + edge_6_2_0_0 + edge_8_2_0_0 + edge_10_2_0_0
   + edge_11_2_0_0 + edge_14_2_0_0 + edge_17_2_0_0 + edge_20_2_0_0 = 1
 consume_one_flow_unit_2: flow_0_2_0_0 - flow_2_3_0_0 - flow_2_4_0_0
   - flow_2_5_0_0 - flow_2_6_0_0 - flow_2_7_0_0 - flow_2_8_0_0
   - flow_2_9_0_0 - flow_2_10_0_0 - flow_2_11_0_0 - flow_2_12_0_0
   - flow_2_14_0_0 - flow_2_15_0_0 - flow_2_17_0_0 - flow_2_19_0_0
   - flow_2_20_0_0 - flow_2_21_0_0 + flow_3_2_0_0 + flow_4_2_0_0
   + flow_5_2_0_0 + flow_6_2_0_0 + flow_8_2_0_0 + flow_10_2_0_0
   + flow_11_2_0_0 + flow_14_2_0_0 + flow_17_2_0_0 + flow_20_2_0_0 = 1
 one_parent_3: edge_0_3_0_0 + edge_2_3_0_0 + edge_4_3_0_0 + edge_5_3_0_0
   + edge_6_3_0_0 + edge_8_3_0_0 + edge_10_3_0_0 + edge_11_3_0_0
   + edge_12_3_0_0 + edge_14_3_0_0 + edge_17_3_0_0 + edge_20_3_0_0 = 1
 consume_one_flow_unit_3: flow_0_3_0_0 + flow_2_3_0_0 - flow_3_1_0_0
   - flow_3_2_0_0 - flow_3_4_0_0 - flow_3_5_0_0 - flow_3_6_0_0
   - flow_3_7_0_0 - flow_3_8_0_0 - flow_3_9_0_0 - flow_3_10_0_0
   - flow_3_11_0_0 - flow_3_12_0_0 - flow_3_13_0_0 - flow_3_14_0_0
   - flow_3_15_0_0 - flow_3_17_0_0 - flow_3_19_0_0 - flow_3_20_0_0
   - flow_3_21_0_0 + flow_4_3_0_0 + flow_5_3_0_0 + flow_6_3_0_0
   + flow_8_3_0_0 + flow_10_3_0_0 + flow_11_3_0_0 + flow_12_3_0_0
   + flow_14_3_0_0 + flow_17_3_0_0 + flow_20_3_0_0 = 1
 one_parent_4: edge_0_4_0_0 + edge_1_4_0_0 + edge_2_4_0_0 + edge_3_4_0_0
   + edge_5_4_0_0 + edge_6_4_0_0 + edge_7_4_0_0 + edge_8_4_0_0
   + edge_11_4_0_0 + edge_14_4_0_0 + edge_17_4_0_0 + edge_20_4_0_0 = 1
 consume_one_flow_unit_4: flow_0_4_0_0 + flow_1_4_0_0 + flow_2_4_0_0
   + flow_3_4_0_0 - flow_4_1_0_0 - flow_4_2_0_0 - flow_4_3_0_0
   - flow_4_5_0_0 - flow_4_6_0_0 - flow_4_7_0_0 - flow_4_8_0_0
   - flow_4_9_0_0 - flow_4_10_0_0 - flow_4_11_0_0 - flow_4_12_0_0
   - flow_4_13_0_0 - flow_4_14_0_0 - flow_4_15_0_0 - flow_4_17_0_0
   - flow_4_19_0_0 - flow_4_20_0_0 - flow_4_21_0_0 + flow_5_4_0_0
   + flow_6_4_0_0 + flow_7_4_0_0 + flow_8_4_0_0 + flow_11_4_0_0
   + flow_14_4_0_0 + flow_17_4_0_0 + flow_20_4_0_0 = 1
 one_parent_5: edge_0_5_0_0 + edge_1_5_0_0 + edge_2_5_0_0 + edge_3_5_0_0
   + edge_4_5_0_0 + edge_6_5_0_0 + edge_7_5_0_0 + edge_8_5_0_0
   + edge_10_5_0_0 + edge_11_5_0_0 + edge_14_5_0_0 + edge_17_5_0_0
   + edge_20_5_0_0 = 1
 consume_one_flow_unit_5: flow_0_5_0_0 + flow_1_5_0_0 + flow_2_5_0_0
   + flow_3_5_0_0 + flow_4_5_0_0 - flow_5_1_0_0 - flow_5_2_0_0
   - flow_5_3_0_0 - flow_5_4_0_0 - flow_5_6_0_0 - flow_5_7_0_0
   - flow_5_8_0_0 - flow_5_9_0_0 - flow_5_10_0_0 - flow_5_11_0_0
   - flow_5_12_0_0 - flow_5_13_0_0 - flow_5_14_0_0 - flow_5_15_0_0
   - flow_5_17_0_0 - flow_5_19_0_0 - flow_5_20_0_0 - flow_5_21_0_0
   + flow_6_5_0_0 + flow_7_5_0_0 + flow_8_5_0_0 + flow_10_5_0_0
   + flow_11_5_0_0 + flow_14_5_0_0 + flow_17_5_0_0 + flow_20_5_0_0 = 1
 one_parent_6: edge_0_6_0_0 + edge_1_6_0_0 + edge_2_6_0_0 + edge_3_6_0_0
   + edge_4_6_0_0 + edge_5_6_0_0 + edge_8_6_0_0 + edge_10_6_0_0
   + edge_11_6_0_0 + edge_12_6_0_0 + edge_14_6_0_0 + edge_17_6_0_0
   + edge_20_6_0_0 = 1
 consume_one_flow_unit_6: flow_0_6_0_0 + flow_1_6_0_0 + flow_2_6_0_0
   + flow_3_6_0_0 + flow_4_6_0_0 + flow_5_6_0_0 - flow_6_1_0_0
   - flow_6_2_0_0 - flow_6_3_0_0 - flow_6_4_0_0 - flow_6_5_0_0
   - flow_6_8_0_0 - flow_6_10_0_0 - flow_6_12_0_0 - flow_6_14_0_0
   - flow_6_20_0_0 + flow_8_6_0_0 + flow_10_6_0_0 + flow_11_6_0_0
   + flow_12_6_0_0 + flow_14_6_0_0 + flow_17_6_0_0 + flow_20_6_0_0 = 1
 one_parent_7: edge_2_7_0_0 + edge_3_7_0_0 + edge_4_7_0_0 + edge_5_7_0_0
   + edge_8_7_0_0 + edge_9_7_0_0 + edge_11_7_0_0 + edge_14_7_0_0 = 1
 consume_one_flow_unit_7: flow_2_7_0_0 + flow_3_7_0_0 + flow_4_7_0_0
   + flow_5_7_0_0 - flow_7_4_0_0 - flow_7_5_0_0 - flow_7_8_0_0
   - flow_7_9_0_0 - flow_7_11_0_0 - flow_7_13_0_0 - flow_7_21_0_0
   + flow_8_7_0_0 + flow_9_7_0_0 + flow_11_7_0_0 + flow_14_7_0_0 = 1
 one_parent_8: edge_0_8_0_0 + edge_1_8_0_0 + edge_2_8_0_0 + edge_3_8_0_0
   + edge_4_8_0_0 + edge_5_8_0_0 + edge_6_8_0_0 + edge_7_8_0_0
   + edge_8_8_0_0 + edge_9_8_0_0 + edge_11_8_0_0 + edge_12_8_0_0
   + edge_14_8_0_0 + edge_15_8_0_0 + edge_17_8_0_0 + edge_20_8_0_0
   + edge_21_8_0_0 = 1
 consume_one_flow_unit_8: flow_0_8_0_0 + flow_1_8_0_0 + flow_2_8_0_0
   + flow_3_8_0_0 + flow_4_8_0_0 + flow_5_8_0_0 + flow_6_8_0_0
   + flow_7_8_0_0 - flow_8_1_0_0 - flow_8_2_0_0 - flow_8_3_0_0
   - flow_8_4_0_0 - flow_8_5_0_0 - flow_8_6_0_0 - flow_8_7_0_0
   - flow_8_9_0_0 - flow_8_10_0_0 - flow_8_11_0_0 - flow_8_12_0_0
   - flow_8_13_0_0 - flow_8_14_0_0 - flow_8_15_0_0 - flow_8_17_0_0
   - flow_8_19_0_0 - flow_8_20_0_0 - flow_8_21_0_0 + flow_9_8_0_0
   + flow_11_8_0_0 + flow_12_8_0_0 + flow_14_8_0_0 + flow_15_8_0_0
   + flow_17_8_0_0 + flow_20_8_0_0 + flow_21_8_0_0 = 1
 one_parent_9: edge_2_9_0_0 + edge_3_9_0_0 + edge_4_9_0_0 + edge_5_9_0_0
   + edge_7_9_0_0 + edge_8_9_0_0 + edge_11_9_0_0 + edge_13_9_0_0
   + edge_14_9_0_0 + edge_17_9_0_0 = 1
 consume_one_flow_unit_9: flow_2_9_0_0 + flow_3_9_0_0 + flow_4_9_0_0
   + flow_5_9_0_0 + flow_7_9_0_0 + flow_8_9_0_0 - flow_9_7_0_0
   - flow_9_8_0_0 - flow_9_11_0_0 - flow_9_13_0_0 - flow_9_14_0_0
   + flow_11_9_0_0 + flow_13_9_0_0 + flow_14_9_0_0 + flow_17_9_0_0 = 1
 one_parent_10: edge_2_10_0_0 + edge_3_10_0_0 + edge_4_10_0_0
   + edge_5_10_0_0 + edge_6_10_0_0 + edge_8_10_0_0 + edge_20_10_0_0 = 1
 consume_one_flow_unit_10: flow_2_10_0_0 + flow_3_10_0_0 + flow_4_10_0_0
   + flow_5_10_0_0 + flow_6_10_0_0 + flow_8_10_0_0 - flow_10_2_0_0
   - flow_10_3_0_0 - flow_10_5_0_0 - flow_10_6_0_0 - flow_10_20_0_0
   - flow_10_21_0_0 + flow_20_10_0_0 = 1
 one_parent_11: edge_0_11_0_0 + edge_2_11_0_0 + edge_3_11_0_0
   + edge_4_11_0_0 + edge_5_11_0_0 + edge_7_11_0_0 + edge_8_11_0_0
   + edge_9_11_0_0 + edge_12_11_0_0 + edge_13_11_0_0 + edge_14_11_0_0
   + edge_17_11_0_0 + edge_20_11_0_0 = 1
 consume_one_flow_unit_11: flow_0_11_0_0 + flow_2_11_0_0 + flow_3_11_0_0
   + flow_4_11_0_0 + flow_5_11_0_0 + flow_7_11_0_0 + flow_8_11_0_0
   + flow_9_11_0_0 - flow_11_2_0_0 - flow_11_3_0_0 - flow_11_4_0_0
   - flow_11_5_0_0 - flow_11_6_0_0 - flow_11_7_0_0 - flow_11_8_0_0
   - flow_11_9_0_0 - flow_11_12_0_0 - flow_11_13_0_0 - flow_11_14_0_0
   - flow_11_15_0_0 - flow_11_17_0_0 - flow_11_19_0_0 - flow_11_20_0_0
   - flow_11_21_0_0 + flow_12_11_0_0 + flow_13_11_0_0 + flow_14_11_0_0
   + flow_17_11_0_0 + flow_20_11_0_0 = 1
 one_parent_12: edge_2_12_0_0 + edge_3_12_0_0 + edge_4_12_0_0
   + edge_5_12_0_0 + edge_6_12_0_0 + edge_8_12_0_0 + edge_11_12_0_0
   + edge_14_12_0_0 + edge_15_12_0_0 + edge_17_12_0_0 + edge_19_12_0_0
   + edge_20_12_0_0 = 1
 consume_one_flow_unit_12: flow_2_12_0_0 + flow_3_12_0_0 + flow_4_12_0_0
   + flow_5_12_0_0 + flow_6_12_0_0 + flow_8_12_0_0 + flow_11_12_0_0
   - flow_12_3_0_0 - flow_12_6_0_0 - flow_12_8_0_0 - flow_12_11_0_0
   - flow_12_14_0_0 - flow_12_15_0_0 + flow_14_12_0_0 + flow_15_12_0_0
   + flow_17_12_0_0 + flow_19_12_0_0 + flow_20_12_0_0 = 1
 one_parent_13: edge_3_13_0_0 + edge_4_13_0_0 + edge_5_13_0_0
   + edge_7_13_0_0 + edge_8_13_0_0 + edge_9_13_0_0 + edge_11_13_0_0
   + edge_14_13_0_0 + edge_15_13_0_0 + edge_17_13_0_0 = 1
 consume_one_flow_unit_13: flow_3_13_0_0 + flow_4_13_0_0 + flow_5_13_0_0
   + flow_7_13_0_0 + flow_8_13_0_0 + flow_9_13_0_0 + flow_11_13_0_0
   - flow_13_9_0_0 - flow_13_11_0_0 - flow_13_14_0_0 - flow_13_15_0_0
   - flow_13_17_0_0 - flow_13_19_0_0 - flow_13_20_0_0 + flow_14_13_0_0
   + flow_15_13_0_0 + flow_17_13_0_0 = 1
 one_parent_14: edge_0_14_0_0 + edge_2_14_0_0 + edge_3_14_0_0
   + edge_4_14_0_0 + edge_5_14_0_0 + edge_6_14_0_0 + edge_8_14_0_0
   + edge_9_14_0_0 + edge_11_14_0_0 + edge_12_14_0_0 + edge_13_14_0_0
   + edge_15_14_0_0 + edge_17_14_0_0 + edge_20_14_0_0 = 1
 consume_one_flow_unit_14: flow_0_14_0_0 + flow_2_14_0_0 + flow_3_14_0_0
   + flow_4_14_0_0 + flow_5_14_0_0 + flow_6_14_0_0 + flow_8_14_0_0
   + flow_9_14_0_0 + flow_11_14_0_0 + flow_12_14_0_0 + flow_13_14_0_0
   - flow_14_2_0_0 - flow_14_3_0_0 - flow_14_4_0_0 - flow_14_5_0_0
   - flow_14_6_0_0 - flow_14_7_0_0 - flow_14_8_0_0 - flow_14_9_0_0
   - flow_14_11_0_0 - flow_14_12_0_0 - flow_14_13_0_0 - flow_14_15_0_0
   - flow_14_17_0_0 - flow_14_19_0_0 - flow_14_20_0_0 - flow_14_21_0_0
   + flow_15_14_0_0 + flow_17_14_0_0 + flow_20_14_0_0 = 1
 one_parent_15: edge_2_15_0_0 + edge_3_15_0_0 + edge_4_15_0_0
   + edge_5_15_0_0 + edge_8_15_0_0 + edge_11_15_0_0 + edge_12_15_0_0
   + edge_13_15_0_0 + edge_14_15_0_0 + edge_17_15_0_0 + edge_19_15_0_0
   + edge_20_15_0_0 = 1
 consume_one_flow_unit_15: flow_2_15_0_0 + flow_3_15_0_0 + flow_4_15_0_0
   + flow_5_15_0_0 + flow_8_15_0_0 + flow_11_15_0_0 + flow_12_15_0_0
   + flow_13_15_0_0 + flow_14_15_0_0 - flow_15_8_0_0 - flow_15_12_0_0
   - flow_15_13_0_0 - flow_15_14_0_0 - flow_15_17_0_0 - flow_15_19_0_0
   - flow_15_20_0_0 + flow_17_15_0_0 + flow_19_15_0_0 + flow_20_15_0_0 = 1
 one_parent_16: = 1
 consume_one_flow_unit_16: = 1
 one_parent_17: edge_2_17_0_0 + edge_3_17_0_0 + edge_4_17_0_0
   + edge_5_17_0_0 + edge_8_17_0_0 + edge_11_17_0_0 + edge_13_17_0_0
   + edge_14_17_0_0 + edge_15_17_0_0 + edge_19_17_0_0 + edge_20_17_0_0 = 1
 consume_one_flow_unit_17: flow_2_17_0_0 + flow_3_17_0_0 + flow_4_17_0_0
   + flow_5_17_0_0 + flow_8_17_0_0 + flow_11_17_0_0 + flow_13_17_0_0
   + flow_14_17_0_0 + flow_15_17_0_0 - flow_17_2_0_0 - flow_17_3_0_0
   - flow_17_4_0_0 - flow_17_5_0_0 - flow_17_6_0_0 - flow_17_8_0_0
   - flow_17_9_0_0 - flow_17_11_0_0 - flow_17_12_0_0 - flow_17_13_0_0
   - flow_17_14_0_0 - flow_17_15_0_0 - flow_17_19_0_0 - flow_17_20_0_0
   - flow_17_21_0_0 + flow_19_17_0_0 + flow_20_17_0_0 = 1
 one_parent_18: = 1
 consume_one_flow_unit_18: = 1
 one_parent_19: edge_2_19_0_0 + edge_3_19_0_0 + edge_4_19_0_0
   + edge_5_19_0_0 + edge_8_19_0_0 + edge_11_19_0_0 + edge_13_19_0_0
   + edge_14_19_0_0 + edge_15_19_0_0 + edge_17_19_0_0 + edge_20_19_0_0 = 1
 consume_one_flow_unit_19: flow_2_19_0_0 + flow_3_19_0_0 + flow_4_19_0_0
   + flow_5_19_0_0 + flow_8_19_0_0 + flow_11_19_0_0 + flow_13_19_0_0
   + flow_14_19_0_0 + flow_15_19_0_0 + flow_17_19_0_0 - flow_19_12_0_0
   - flow_19_15_0_0 - flow_19_17_0_0 - flow_19_20_0_0 - flow_19_21_0_0
   + flow_20_19_0_0 = 1
 one_parent_20: edge_2_20_0_0 + edge_3_20_0_0 + edge_4_20_0_0
   + edge_5_20_0_0 + edge_6_20_0_0 + edge_8_20_0_0 + edge_10_20_0_0
   + edge_11_20_0_0 + edge_13_20_0_0 + edge_14_20_0_0 + edge_15_20_0_0
   + edge_17_20_0_0 + edge_19_20_0_0 + edge_21_20_0_0 = 1
 consume_one_flow_unit_20: flow_2_20_0_0 + flow_3_20_0_0 + flow_4_20_0_0
   + flow_5_20_0_0 + flow_6_20_0_0 + flow_8_20_0_0 + flow_10_20_0_0
   + flow_11_20_0_0 + flow_13_20_0_0 + flow_14_20_0_0 + flow_15_20_0_0
   + flow_17_20_0_0 + flow_19_20_0_0 - flow_20_1_0_0 - flow_20_2_0_0
   - flow_20_3_0_0 - flow_20_4_0_0 - flow_20_5_0_0 - flow_20_6_0_0
   - flow_20_8_0_0 - flow_20_10_0_0 - flow_20_11_0_0 - flow_20_12_0_0
   - flow_20_14_0_0 - flow_20_15_0_0 - flow_20_17_0_0 - flow_20_19_0_0
   - flow_20_21_0_0 + flow_21_20_0_0 = 1
 one_parent_21: edge_2_21_0_0 + edge_3_21_0_0 + edge_4_21_0_0
   + edge_5_21_0_0 + edge_7_21_0_0 + edge_8_21_0_0 + edge_10_21_0_0
   + edge_11_21_0_0 + edge_14_21_0_0 + edge_17_21_0_0 + edge_19_21_0_0
   + edge_20_21_0_0 = 1
 consume_one_flow_unit_21: flow_2_21_0_0 + flow_3_21_0_0 + flow_4_21_0_0
   + flow_5_21_0_0 + flow_7_21_0_0 + flow_8_21_0_0 + flow_10_21_0_0
   + flow_11_21_0_0 + flow_14_21_0_0 + flow_17_21_0_0 + flow_19_21_0_0
   + flow_20_21_0_0 - flow_21_8_0_0 - flow_21_20_0_0 = 1
 root_flow: flow_0_1_0_0 + flow_0_2_0_0 + flow_0_3_0_0 + flow_0_4_0_0
   + flow_0_5_0_0 + flow_0_6_0_0 + flow_0_8_0_0 + flow_0_11_0_0
   + flow_0_14_0_0 = 21
 inactive_no_flow_0_1_0_0: flow_0_1_0_0 - 1000 edge_0_1_0_0 <= 0
 inactive_no_flow_0_2_0_0: flow_0_2_0_0 - 1000 edge_0_2_0_0 <= 0
 inactive_no_flow_0_3_0_0: flow_0_3_0_0 - 1000 edge_0_3_0_0 <= 0
 inactive_no_flow_0_4_0_0: flow_0_4_0_0 - 1000 edge_0_4_0_0 <= 0
 inactive_no_flow_0_5_0_0: flow_0_5_0_0 - 1000 edge_0_5_0_0 <= 0
 inactive_no_flow_0_6_0_0: flow_0_6_0_0 - 1000 edge_0_6_0_0 <= 0
 inactive_no_flow_0_8_0_0: flow_0_8_0_0 - 1000 edge_0_8_0_0 <= 0
 inactive_no_flow_0_11_0_0: flow_0_11_0_0 - 1000 edge_0_11_0_0 <= 0
 inactive_no_flow_0_14_0_0: flow_0_14_0_0 - 1000 edge_0_14_0_0 <= 0
 inactive_no_flow_1_4_0_0: flow_1_4_0_0 - 1000 edge_1_4_0_0 <= 0
 inactive_no_flow_1_5_0_0: flow_1_5_0_0 - 1000 edge_1_5_0_0 <= 0
 inactive_no_flow_1_6_0_0: flow_1_6_0_0 - 1000 edge_1_6_0_0 <= 0
 inactive_no_flow_1_8_0_0: flow_1_8_0_0 - 1000 edge_1_8_0_0 <= 0
 inactive_no_flow_2_2_0_0: flow_2_2_0_0 - 1000 edge_2_2_0_0 <= 0
 inactive_no_flow_2_3_0_0: flow_2_3_0_0 - 1000 edge_2_3_0_0 <= 0
 inactive_no_flow_2_4_0_0: flow_2_4_0_0 - 1000 edge_2_4_0_0 <= 0
 inactive_no_flow_2_5_0_0: flow_2_5_0_0 - 1000 edge_2_5_0_0 <= 0
 inactive_no_flow_2_6_0_0: flow_2_6_0_0 - 1000 edge_2_6_0_0 <= 0
 inactive_no_flow_2_7_0_0: flow_2_7_0_0 - 1000 edge_2_7_0_0 <= 0
 inactive_no_flow_2_8_0_0: flow_2_8_0_0 - 1000 edge_2_8_0_0 <= 0
 inactive_no_flow_2_9_0_0: flow_2_9_0_0 - 1000 edge_2_9_0_0 <= 0
 inactive_no_flow_2_10_0_0: flow_2_10_0_0 - 1000 edge_2_10_0_0 <= 0
 inactive_no_flow_2_11_0_0: flow_2_11_0_0 - 1000 edge_2_11_0_0 <= 0
 inactive_no_flow_2_12_0_0: flow_2_12_0_0 - 1000 edge_2_12_0_0 <= 0
 inactive_no_flow_2_14_0_0: flow_2_14_0_0 - 1000 edge_2_14_0_0 <= 0
 inactive_no_flow_2_15_0_0: flow_2_15_0_0 - 1000 edge_2_15_0_0 <= 0
 inactive_no_flow_2_17_0_0: flow_2_17_0_0 - 1000 edge_2_17_0_0 <= 0
 inactive_no_flow_2_19_0_0: flow_2_19_0_0 - 1000 edge_2_19_0_0 <= 0
 inactive_no_flow_2_20_0_0: flow_2_20_0_0 - 1000 edge_2_20_0_0 <= 0
 inactive_no_flow_2_21_0_0: flow_2_21_0_0 - 1000 edge_2_21_0_0 <= 0
 inactive_no_flow_3_1_0_0: flow_3_1_0_0 - 1000 edge_3_1_0_0 <= 0
 inactive_no_flow_3_2_0_0: flow_3_2_0_0 - 1000 edge_3_2_0_0 <= 0
 inactive_no_flow_3_4_0_0: flow_3_4_0_0 - 1000 edge_3_4_0_0 <= 0
 inactive_no_flow_3_5_0_0: flow_3_5_0_0 - 1000 edge_3_5_0_0 <= 0
 inactive_no_flow_3_6_0_0: flow_3_6_0_0 - 1000 edge_3_6_0_0 <= 0
 inactive_no_flow_3_7_0_0: flow_3_7_0_0 - 1000 edge_3_7_0_0 <= 0
 inactive_no_flow_3_8_0_0: flow_3_8_0_0 - 1000 edge_3_8_0_0 <= 0
 inactive_no_flow_3_9_0_0: flow_3_9_0_0 - 1000 edge_3_9_0_0 <= 0
 inactive_no_flow_3_10_0_0: flow_3_10_0_0 - 1000 edge_3_10_0_0 <= 0
 inactive_no_flow_3_11_0_0: flow_3_11_0_0 - 1000 edge_3_11_0_0 <= 0
 inactive_no_flow_3_12_0_0: flow_3_12_0_0 - 1000 edge_3_12_0_0 <= 0
 inactive_no_flow_3_13_0_0: flow_3_13_0_0 - 1000 edge_3_13_0_0 <= 0
 inactive_no_flow_3_14_0_0: flow_3_14_0_0 - 1000 edge_3_14_0_0 <= 0
 inactive_no_flow_3_15_0_0: flow_3_15_0_0 - 1000 edge_3_15_0_0 <= 0
 inactive_no_flow_3_17_0_0: flow_3_17_0_0 - 1000 edge_3_17_0_0 <= 0
 inactive_no_flow_3_19_0_0: flow_3_19_0_0 - 1000 edge_3_19_0_0 <= 0
 inactive_no_flow_3_20_0_0: flow_3_20_0_0 - 1000 edge_3_20_0_0 <= 0
 inactive_no_flow_3_21_0_0: flow_3_21_0_0 - 1000 edge_3_21_0_0 <= 0
 inactive_no_flow_4_1_0_0: flow_4_1_0_0 - 1000 edge_4_1_0_0 <= 0
 inactive_no_flow_4_2_0_0: flow_4_2_0_0 - 1000 edge_4_2_0_0 <= 0
 inactive_no_flow_4_3_0_0: flow_4_3_0_0 - 1000 edge_4_3_0_0 <= 0
 inactive_no_flow_4_5_0_0: flow_4_5_0_0 - 1000 edge_4_5_0_0 <= 0
 inactive_no_flow_4_6_0_0: flow_4_6_0_0 - 1000 edge_4_6_0_0 <= 0
 inactive_no_flow_4_7_0_0: flow_4_7_0_0 - 1000 edge_4_7_0_0 <= 0
 inactive_no_flow_4_8_0_0: flow_4_8_0_0 - 1000 edge_4_8_0_0 <= 0
 inactive_no_flow_4_9_0_0: flow_4_9_0_0 - 1000 edge_4_9_0_0 <= 0
 inactive_no_flow_4_10_0_0: flow_4_10_0_0 - 1000 edge_4_10_0_0 <= 0
 inactive_no_flow_4_11_0_0: flow_4_11_0_0 - 1000 edge_4_11_0_0 <= 0
 inactive_no_flow_4_12_0_0: flow_4_12_0_0 - 1000 edge_4_12_0_0 <= 0
 inactive_no_flow_4_13_0_0: flow_4_13_0_0 - 1000 edge_4_13_0_0 <= 0
 inactive_no_flow_4_14_0_0: flow_4_14_0_0 - 1000 edge_4_14_0_0 <= 0
 inactive_no_flow_4_15_0_0: flow_4_15_0_0 - 1000 edge_4_15_0_0 <= 0
 inactive_no_flow_4_17_0_0: flow_4_17_0_0 - 1000 edge_4_17_0_0 <= 0
 inactive_no_flow_4_19_0_0: flow_4_19_0_0 - 1000 edge_4_19_0_0 <= 0
 inactive_no_flow_4_20_0_0: flow_4_20_0_0 - 1000 edge_4_20_0_0 <= 0
 inactive_no_flow_4_21_0_0: flow_4_21_0_0 - 1000 edge_4_21_0_0 <= 0
 inactive_no_flow_5_1_0_0: flow_5_1_0_0 - 1000 edge_5_1_0_0 <= 0
 inactive_no_flow_5_2_0_0: flow_5_2_0_0 - 1000 edge_5_2_0_0 <= 0
 inactive_no_flow_5_3_0_0: flow_5_3_0_0 - 1000 edge_5_3_0_0 <= 0
 inactive_no_flow_5_4_0_0: flow_5_4_0_0 - 1000 edge_5_4_0_0 <= 0
 inactive_no_flow_5_6_0_0: flow_5_6_0_0 - 1000 edge_5_6_0_0 <= 0
 inactive_no_flow_5_7_0_0: flow_5_7_0_0 - 1000 edge_5_7_0_0 <= 0
 inactive_no_flow_5_8_0_0: flow_5_8_0_0 - 1000 edge_5_8_0_0 <= 0
 inactive_no_flow_5_9_0_0: flow_5_9_0_0 - 1000 edge_5_9_0_0 <= 0
 inactive_no_flow_5_10_0_0: flow_5_10_0_0 - 1000 edge_5_10_0_0 <= 0
 inactive_no_flow_5_11_0_0: flow_5_11_0_0 - 1000 edge_5_11_0_0 <= 0
 inactive_no_flow_5_12_0_0: flow_5_12_0_0 - 1000 edge_5_12_0_0 <= 0
 inactive_no_flow_5_13_0_0: flow_5_13_0_0 - 1000 edge_5_13_0_0 <= 0
 inactive_no_flow_5_14_0_0: flow_5_14_0_0 - 1000 edge_5_14_0_0 <= 0
 inactive_no_flow_5_15_0_0: flow_5_15_0_0 - 1000 edge_5_15_0_0 <= 0
 inactive_no_flow_5_17_0_0: flow_5_17_0_0 - 1000 edge_5_17_0_0 <= 0
 inactive_no_flow_5_19_0_0: flow_5_19_0_0 - 1000 edge_5_19_0_0 <= 0
 inactive_no_flow_5_20_0_0: flow_5_20_0_0 - 1000 edge_5_20_0_0 <= 0
 inactive_no_flow_5_21_0_0: flow_5_21_0_0 - 1000 edge_5_21_0_0 <= 0
 inactive_no_flow_6_1_0_0: flow_6_1_0_0 - 1000 edge_6_1_0_0 <= 0
 inactive_no_flow_6_2_0_0: flow_6_2_0_0 - 1000 edge_6_2_0_0 <= 0
 inactive_no_flow_6_3_0_0: flow_6_3_0_0 - 1000 edge_6_3_0_0 <= 0
 inactive_no_flow_6_4_0_0: flow_6_4_0_0 - 1000 edge_6_4_0_0 <= 0
 inactive_no_flow_6_5_0_0: flow_6_5_0_0 - 1000 edge_6_5_0_0 <= 0
 inactive_no_flow_6_8_0_0: flow_6_8_0_0 - 1000 edge_6_8_0_0 <= 0
 inactive_no_flow_6_10_0_0: flow_6_10_0_0 - 1000 edge_6_10_0_0 <= 0
 inactive_no_flow_6_12_0_0: flow_6_12_0_0 - 1000 edge_6_12_0_0 <= 0
 inactive_no_flow_6_14_0_0: flow_6_14_0_0 - 1000 edge_6_14_0_0 <= 0
 inactive_no_flow_6_20_0_0: flow_6_20_0_0 - 1000 edge_6_20_0_0 <= 0
 inactive_no_flow_7_4_0_0: flow_7_4_0_0 - 1000 edge_7_4_0_0 <= 0
 inactive_no_flow_7_5_0_0: flow_7_5_0_0 - 1000 edge_7_5_0_0 <= 0
 inactive_no_flow_7_8_0_0: flow_7_8_0_0 - 1000 edge_7_8_0_0 <= 0
 inactive_no_flow_7_9_0_0: flow_7_9_0_0 - 1000 edge_7_9_0_0 <= 0
 inactive_no_flow_7_11_0_0: flow_7_11_0_0 - 1000 edge_7_11_0_0 <= 0
 inactive_no_flow_7_13_0_0: flow_7_13_0_0 - 1000 edge_7_13_0_0 <= 0
 inactive_no_flow_7_21_0_0: flow_7_21_0_0 - 1000 edge_7_21_0_0 <= 0
 inactive_no_flow_8_1_0_0: flow_8_1_0_0 - 1000 edge_8_1_0_0 <= 0
 inactive_no_flow_8_2_0_0: flow_8_2_0_0 - 1000 edge_8_2_0_0 <= 0
 inactive_no_flow_8_3_0_0: flow_8_3_0_0 - 1000 edge_8_3_0_0 <= 0
 inactive_no_flow_8_4_0_0: flow_8_4_0_0 - 1000 edge_8_4_0_0 <= 0
 inactive_no_flow_8_5_0_0: flow_8_5_0_0 - 1000 edge_8_5_0_0 <= 0
 inactive_no_flow_8_6_0_0: flow_8_6_0_0 - 1000 edge_8_6_0_0 <= 0
 inactive_no_flow_8_7_0_0: flow_8_7_0_0 - 1000 edge_8_7_0_0 <= 0
 inactive_no_flow_8_8_0_0: flow_8_8_0_0 - 1000 edge_8_8_0_0 <= 0
 inactive_no_flow_8_9_0_0: flow_8_9_0_0 - 1000 edge_8_9_0_0 <= 0
 inactive_no_flow_8_10_0_0: flow_8_10_0_0 - 1000 edge_8_10_0_0 <= 0
 inactive_no_flow_8_11_0_0: flow_8_11_0_0 - 1000 edge_8_11_0_0 <= 0
 inactive_no_flow_8_12_0_0: flow_8_12_0_0 - 1000 edge_8_12_0_0 <= 0
 inactive_no_flow_8_13_0_0: flow_8_13_0_0 - 1000 edge_8_13_0_0 <= 0
 inactive_no_flow_8_14_0_0: flow_8_14_0_0 - 1000 edge_8_14_0_0 <= 0
 inactive_no_flow_8_15_0_0: flow_8_15_0_0 - 1000 edge_8_15_0_0 <= 0
 inactive_no_flow_8_17_0_0: flow_8_17_0_0 - 1000 edge_8_17_0_0 <= 0
 inactive_no_flow_8_19_0_0: flow_8_19_0_0 - 1000 edge_8_19_0_0 <= 0
 inactive_no_flow_8_20_0_0: flow_8_20_0_0 - 1000 edge_8_20_0_0 <= 0
 inactive_no_flow_8_21_0_0: flow_8_21_0_0 - 1000 edge_8_21_0_0 <= 0
 inactive_no_flow_9_7_0_0: flow_9_7_0_0 - 1000 edge_9_7_0_0 <= 0
 inactive_no_flow_9_8_0_0: flow_9_8_0_0 - 1000 edge_9_8_0_0 <= 0
 inactive_no_flow_9_11_0_0: flow_9_11_0_0 - 1000 edge_9_11_0_0 <= 0
 inactive_no_flow_9_13_0_0: flow_9_13_0_0 - 1000 edge_9_13_0_0 <= 0
 inactive_no_flow_9_14_0_0: flow_9_14_0_0 - 1000 edge_9_14_0_0 <= 0
 inactive_no_flow_10_2_0_0: flow_10_2_0_0 - 1000 edge_10_2_0_0 <= 0
 inactive_no_flow_10_3_0_0: flow_10_3_0_0 - 1000 edge_10_3_0_0 <= 0
 inactive_no_flow_10_5_0_0: flow_10_5_0_0 - 1000 edge_10_5_0_0 <= 0
 inactive_no_flow_10_6_0_0: flow_10_6_0_0 - 1000 edge_10_6_0_0 <= 0
 inactive_no_flow_10_20_0_0: flow_10_20_0_0 - 1000 edge_10_20_0_0 <= 0
 inactive_no_flow_10_21_0_0: flow_10_21_0_0 - 1000 edge_10_21_0_0 <= 0
 inactive_no_flow_11_2_0_0: flow_11_2_0_0 - 1000 edge_11_2_0_0 <= 0
 inactive_no_flow_11_3_0_0: flow_11_3_0_0 - 1000 edge_11_3_0_0 <= 0
 inactive_no_flow_11_4_0_0: flow_11_4_0_0 - 1000 edge_11_4_0_0 <= 0
 inactive_no_flow_11_5_0_0: flow_11_5_0_0 - 1000 edge_11_5_0_0 <= 0
 inactive_no_flow_11_6_0_0: flow_11_6_0_0 - 1000 edge_11_6_0_0 <= 0
 inactive_no_flow_11_7_0_0: flow_11_7_0_0 - 1000 edge_11_7_0_0 <= 0
 inactive_no_flow_11_8_0_0: flow_11_8_0_0 - 1000 edge_11_8_0_0 <= 0
 inactive_no_flow_11_9_0_0: flow_11_9_0_0 - 1000 edge_11_9_0_0 <= 0
 inactive_no_flow_11_12_0_0: flow_11_12_0_0 - 1000 edge_11_12_0_0 <= 0
 inactive_no_flow_11_13_0_0: flow_11_13_0_0 - 1000 edge_11_13_0_0 <= 0
 inactive_no_flow_11_14_0_0: flow_11_14_0_0 - 1000 edge_11_14_0_0 <= 0
 inactive_no_flow_11_15_0_0: flow_11_15_0_0 - 1000 edge_11_15_0_0 <= 0
 inactive_no_flow_11_17_0_0: flow_11_17_0_0 - 1000 edge_11_17_0_0 <= 0
 inactive_no_flow_11_19_0_0: flow_11_19_0_0 - 1000 edge_11_19_0_0 <= 0
 inactive_no_flow_11_20_0_0: flow_11_20_0_0 - 1000 edge_11_20_0_0 <= 0
 inactive_no_flow_11_21_0_0: flow_11_21_0_0 - 1000 edge_11_21_0_0 <= 0
 inactive_no_flow_12_3_0_0: flow_12_3_0_0 - 1000 edge_12_3_0_0 <= 0
 inactive_no_flow_12_6_0_0: flow_12_6_0_0 - 1000 edge_12_6_0_0 <= 0
 inactive_no_flow_12_8_0_0: flow_12_8_0_0 - 1000 edge_12_8_0_0 <= 0
 inactive_no_flow_12_11_0_0: flow_12_11_0_0 - 1000 edge_12_11_0_0 <= 0
 inactive_no_flow_12_14_0_0: flow_12_14_0_0 - 1000 edge_12_14_0_0 <= 0
 inactive_no_flow_12_15_0_0: flow_12_15_0_0 - 1000 edge_12_15_0_0 <= 0
 inactive_no_flow_13_9_0_0: flow_13_9_0_0 - 1000 edge_13_9_0_0 <= 0
 inactive_no_flow_13_11_0_0: flow_13_11_0_0 - 1000 edge_13_11_0_0 <= 0
 inactive_no_flow_13_14_0_0: flow_13_14_0_0 - 1000 edge_13_14_0_0 <= 0
 inactive_no_flow_13_15_0_0: flow_13_15_0_0 - 1000 edge_13_15_0_0 <= 0
 inactive_no_flow_13_17_0_0: flow_13_17_0_0 - 1000 edge_13_17_0_0 <= 0
 inactive_no_flow_13_19_0_0: flow_13_19_0_0 - 1000 edge_13_19_0_0 <= 0
 inactive_no_flow_13_20_0_0: flow_13_20_0_0 - 1000 edge_13_20_0_0 <= 0
 inactive_no_flow_14_2_0_0: flow_14_2_0_0 - 1000 edge_14_2_0_0 <= 0
 inactive_no_flow_14_3_0_0: flow_14_3_0_0 - 1000 edge_14_3_0_0 <= 0
 inactive_no_flow_14_4_0_0: flow_14_4_0_0 - 1000 edge_14_4_0_0 <= 0
 inactive_no_flow_14_5_0_0: flow_14_5_0_0 - 1000 edge_14_5_0_0 <= 0
 inactive_no_flow_14_6_0_0: flow_14_6_0_0 - 1000 edge_14_6_0_0 <= 0
 inactive_no_flow_14_7_0_0: flow_14_7_0_0 - 1000 edge_14_7_0_0 <= 0
 inactive_no_flow_14_8_0_0: flow_14_8_0_0 - 1000 edge_14_8_0_0 <= 0
 inactive_no_flow_14_9_0_0: flow_14_9_0_0 - 1000 edge_14_9_0_0 <= 0
 inactive_no_flow_14_11_0_0: flow_14_11_0_0 - 1000 edge_14_11_0_0 <= 0
 inactive_no_flow_14_12_0_0: flow_14_12_0_0 - 1000 edge_14_12_0_0 <= 0
 inactive_no_flow_14_13_0_0: flow_14_13_0_0 - 1000 edge_14_13_0_0 <= 0
 inactive_no_flow_14_15_0_0: flow_14_15_0_0 - 1000 edge_14_15_0_0 <= 0
 inactive_no_flow_14_17_0_0: flow_14_17_0_0 - 1000 edge_14_17_0_0 <= 0
 inactive_no_flow_14_19_0_0: flow_14_19_0_0 - 1000 edge_14_19_0_0 <= 0
 inactive_no_flow_14_20_0_0: flow_14_20_0_0 - 1000 edge_14_20_0_0 <= 0
 inactive_no_flow_14_21_0_0: flow_14_21_0_0 - 1000 edge_14_21_0_0 <= 0
 inactive_no_flow_15_8_0_0: flow_15_8_0_0 - 1000 edge_15_8_0_0 <= 0
 inactive_no_flow_15_12_0_0: flow_15_12_0_0 - 1000 edge_15_12_0_0 <= 0
 inactive_no_flow_15_13_0_0: flow_15_13_0_0 - 1000 edge_15_13_0_0 <= 0
 inactive_no_flow_15_14_0_0: flow_15_14_0_0 - 1000 edge_15_14_0_0 <= 0
 inactive_no_flow_15_17_0_0: flow_15_17_0_0 - 1000 edge_15_17_0_0 <= 0
 inactive_no_flow_15_19_0_0: flow_15_19_0_0 - 1000 edge_15_19_0_0 <= 0
 inactive_no_flow_15_20_0_0: flow_15_20_0_0 - 1000 edge_15_20_0_0 <= 0
 inactive_no_flow_17_2_0_0: flow_17_2_0_0 - 1000 edge_17_2_0_0 <= 0
 inactive_no_flow_17_3_0_0: flow_17_3_0_0 - 1000 edge_17_3_0_0 <= 0
 inactive_no_flow_17_4_0_0: flow_17_4_0_0 - 1000 edge_17_4_0_0 <= 0
 inactive_no_flow_17_5_0_0: flow_17_5_0_0 - 1000 edge_17_5_0_0 <= 0
 inactive_no_flow_17_6_0_0: flow_17_6_0_0 - 1000 edge_17_6_0_0 <= 0
 inactive_no_flow_17_8_0_0: flow_17_8_0_0 - 1000 edge_17_8_0_0 <= 0
 inactive_no_flow_17_9_0_0: flow_17_9_0_0 - 1000 edge_17_9_0_0 <= 0
 inactive_no_flow_17_11_0_0: flow_17_11_0_0 - 1000 edge_17_11_0_0 <= 0
 inactive_no_flow_17_12_0_0: flow_17_12_0_0 - 1000 edge_17_12_0_0 <= 0
 inactive_no_flow_17_13_0_0: flow_17_13_0_0 - 1000 edge_17_13_0_0 <= 0
 inactive_no_flow_17_14_0_0: flow_17_14_0_0 - 1000 edge_17_14_0_0 <= 0
 inactive_no_flow_17_15_0_0: flow_17_15_0_0 - 1000 edge_17_15_0_0 <= 0
 inactive_no_flow_17_19_0_0: flow_17_19_0_0 - 1000 edge_17_19_0_0 <= 0
 inactive_no_flow_17_20_0_0: flow_17_20_0_0 - 1000 edge_17_20_0_0 <= 0
 inactive_no_flow_17_21_0_0: flow_17_21_0_0 - 1000 edge_17_21_0_0 <= 0
 inactive_no_flow_19_12_0_0: flow_19_12_0_0 - 1000 edge_19_12_0_0 <= 0
 inactive_no_flow_19_15_0_0: flow_19_15_0_0 - 1000 edge_19_15_0_0 <= 0
 inactive_no_flow_19_17_0_0: flow_19_17_0_0 - 1000 edge_19_17_0_0 <= 0
 inactive_no_flow_19_20_0_0: flow_19_20_0_0 - 1000 edge_19_20_0_0 <= 0
 inactive_no_flow_19_21_0_0: flow_19_21_0_0 - 1000 edge_19_21_0_0 <= 0
 inactive_no_flow_20_1_0_0: flow_20_1_0_0 - 1000 edge_20_1_0_0 <= 0
 inactive_no_flow_20_2_0_0: flow_20_2_0_0 - 1000 edge_20_2_0_0 <= 0
 inactive_no_flow_20_3_0_0: flow_20_3_0_0 - 1000 edge_20_3_0_0 <= 0
 inactive_no_flow_20_4_0_0: flow_20_4_0_0 - 1000 edge_20_4_0_0 <= 0
 inactive_no_flow_20_5_0_0: flow_20_5_0_0 - 1000 edge_20_5_0_0 <= 0
 inactive_no_flow_20_6_0_0: flow_20_6_0_0 - 1000 edge_20_6_0_0 <= 0
 inactive_no_flow_20_8_0_0: flow_20_8_0_0 - 1000 edge_20_8_0_0 <= 0
 inactive_no_flow_20_10_0_0: flow_20_10_0_0 - 1000 edge_20_10_0_0 <= 0
 inactive_no_flow_20_11_0_0: flow_20_11_0_0 - 1000 edge_20_11_0_0 <= 0
 inactive_no_flow_20_12_0_0: flow_20_12_0_0 - 1000 edge_20_12_0_0 <= 0
 inactive_no_flow_20_14_0_0: flow_20_14_0_0 - 1000 edge_20_14_0_0 <= 0
 inactive_no_flow_20_15_0_0: flow_20_15_0_0 - 1000 edge_20_15_0_0 <= 0
 inactive_no_flow_20_17_0_0: flow_20_17_0_0 - 1000 edge_20_17_0_0 <= 0
 inactive_no_flow_20_19_0_0: flow_20_19_0_0 - 1000 edge_20_19_0_0 <= 0
 inactive_no_flow_20_21_0_0: flow_20_21_0_0 - 1000 edge_20_21_0_0 <= 0
 inactive_no_flow_21_8_0_0: flow_21_8_0_0 - 1000 edge_21_8_0_0 <= 0
 inactive_no_flow_21_20_0_0: flow_21_20_0_0 - 1000 edge_21_20_0_0 <= 0
Bounds
Binaries
 edge_0_1_0_0 edge_0_2_0_0 edge_0_3_0_0 edge_0_4_0_0 edge_0_5_0_0
 edge_0_6_0_0 edge_0_8_0_0 edge_0_11_0_0 edge_0_14_0_0 edge_1_4_0_0
 edge_1_5_0_0 edge_1_6_0_0 edge_1_8_0_0 edge_2_2_0_0 edge_2_3_0_0
 edge_2_4_0_0 edge_2_5_0_0 edge_2_6_0_0 edge_2_7_0_0 edge_2_8_0_0
 edge_2_9_0_0 edge_2_10_0_0 edge_2_11_0_0 edge_2_12_0_0 edge_2_14_0_0
 edge_2_15_0_0 edge_2_17_0_0 edge_2_19_0_0 edge_2_20_0_0 edge_2_21_0_0
 edge_3_1_0_0 edge_3_2_0_0 edge_3_4_0_0 edge_3_5_0_0 edge_3_6_0_0
 edge_3_7_0_0 edge_3_8_0_0 edge_3_9_0_0 edge_3_10_0_0 edge_3_11_0_0
 edge_3_12_0_0 edge_3_13_0_0 edge_3_14_0_0 edge_3_15_0_0 edge_3_17_0_0
 edge_3_19_0_0 edge_3_20_0_0 edge_3_21_0_0 edge_4_1_0_0 edge_4_2_0_0
 edge_4_3_0_0 edge_4_5_0_0 edge_4_6_0_0 edge_4_7_0_0 edge_4_8_0_0
 edge_4_9_0_0 edge_4_10_0_0 edge_4_11_0_0 edge_4_12_0_0 edge_4_13_0_0
 edge_4_14_0_0 edge_4_15_0_0 edge_4_17_0_0 edge_4_19_0_0 edge_4_20_0_0
 edge_4_21_0_0 edge_5_1_0_0 edge_5_2_0_0 edge_5_3_0_0 edge_5_4_0_0
 edge_5_6_0_0 edge_5_7_0_0 edge_5_8_0_0 edge_5_9_0_0 edge_5_10_0_0
 edge_5_11_0_0 edge_5_12_0_0 edge_5_13_0_0 edge_5_14_0_0 edge_5_15_0_0
 edge_5_17_0_0 edge_5_19_0_0 edge_5_20_0_0 edge_5_21_0_0 edge_6_1_0_0
 edge_6_2_0_0 edge_6_3_0_0 edge_6_4_0_0 edge_6_5_0_0 edge_6_8_0_0
 edge_6_10_0_0 edge_6_12_0_0 edge_6_14_0_0 edge_6_20_0_0 edge_7_4_0_0
 edge_7_5_0_0 edge_7_8_0_0 edge_7_9_0_0 edge_7_11_0_0 edge_7_13_0_0
 edge_7_21_0_0 edge_8_1_0_0 edge_8_2_0_0 edge_8_3_0_0 edge_8_4_0_0
 edge_8_5_0_0 edge_8_6_0_0 edge_8_7_0_0 edge_8_8_0_0 edge_8_9_0_0
 edge_8_10_0_0 edge_8_11_0_0 edge_8_12_0_0 edge_8_13_0_0 edge_8_14_0_0
 edge_8_15_0_0 edge_8_17_0_0 edge_8_19_0_0 edge_8_20_0_0 edge_8_21_0_0
 edge_9_7_0_0 edge_9_8_0_0 edge_9_11_0_0 edge_9_13_0_0 edge_9_14_0_0
 edge_10_2_0_0 edge_10_3_0_0 edge_10_5_0_0 edge_10_6_0_0 edge_10_20_0_0
 edge_10_21_0_0 edge_11_2_0_0 edge_11_3_0_0 edge_11_4_0_0 edge_11_5_0_0
 edge_11_6_0_0 edge_11_7_0_0 edge_11_8_0_0 edge_11_9_0_0 edge_11_12_0_0
 edge_11_13_0_0 edge_11_14_0_0 edge_11_15_0_0 edge_11_17_0_0 edge_11_19_0_0
 edge_11_20_0_0 edge_11_21_0_0 edge_12_3_0_0 edge_12_6_0_0 edge_12_8_0_0
 edge_12_11_0_0 edge_12_14_0_0 edge_12_15_0_0 edge_13_9_0_0 edge_13_11_0_0
 edge_13_14_0_0 edge_13_15_0_0 edge_13_17_0_0 edge_13_19_0_0 edge_13_20_0_0
 edge_14_2_0_0 edge_14_3_0_0 edge_14_4_0_0 edge_14_5_0_0 edge_14_6_0_0
 edge_14_7_0_0 edge_14_8_0_0 edge_14_9_0_0 edge_14_11_0_0 edge_14_12_0_0
 edge_14_13_0_0 edge_14_15_0_0 edge_14_17_0_0 edge_14_19_0_0 edge_14_20_0_0
 edge_14_21_0_0 edge_15_8_0_0 edge_15_12_0_0 edge_15_13_0_0 edge_15_14_0_0
 edge_15_17_0_0 edge_15_19_0_0 edge_15_20_0_0 edge_17_2_0_0 edge_17_3_0_0
 edge_17_4_0_0 edge_17_5_0_0 edge_17_6_0_0 edge_17_8_0_0 edge_17_9_0_0
 edge_17_11_0_0 edge_17_12_0_0 edge_17_13_0_0 edge_17_14_0_0 edge_17_15_0_0
 edge_17_19_0_0 edge_17_20_0_0 edge_17_21_0_0 edge_19_12_0_0 edge_19_15_0_0
 edge_19_17_0_0 edge_19_20_0_0 edge_19_21_0_0 edge_20_1_0_0 edge_20_2_0_0
 edge_20_3_0_0 edge_20_4_0_0 edge_20_5_0_0 edge_20_6_0_0 edge_20_8_0_0
 edge_20_10_0_0 edge_20_11_0_0 edge_20_12_0_0 edge_20_14_0_0 edge_20_15_0_0
 edge_20_17_0_0 edge_20_19_0_0 edge_20_21_0_0 edge_21_8_0_0 edge_21_20_0_0
End
